p cnf 430 1488
-191 169 0
-191 158 0
-191 -74 0
-191 -85 0
-191 5 0
191 -169 -158 74 85 -5 0
-192 67 0
-192 -94 0
-192 -150 0
-192 168 0
-192 62 0
192 -67 94 150 -168 -62 0
-193 -40 0
-193 -15 0
-193 -58 0
-193 49 0
-193 124 0
193 40 15 58 -49 -124 0
-194 61 0
-194 -71 0
-194 104 0
-194 -157 0
-194 -155 0
194 -61 71 -104 157 155 0
-195 6 0
-195 -74 0
-195 170 0
-195 -158 0
-195 -125 0
195 -6 74 -170 158 125 0
191 192 193 194 195 0
-196 -158 0
-196 -112 0
-196 143 0
-196 174 0
-196 186 0
196 158 112 -143 -174 -186 0
-197 -134 0
-197 11 0
-197 -138 0
-197 166 0
-197 -119 0
197 134 -11 138 -166 119 0
-198 121 0
-198 -80 0
-198 39 0
-198 -19 0
-198 147 0
198 -121 80 -39 19 -147 0
-199 -151 0
-199 27 0
-199 184 0
-199 165 0
-199 57 0
199 151 -27 -184 -165 -57 0
-200 111 0
-200 -167 0
-200 165 0
-200 28 0
-200 50 0
200 -111 167 -165 -28 -50 0
196 197 198 199 200 0
-201 -128 0
-201 -148 0
-201 -100 0
-201 38 0
-201 -45 0
201 128 148 100 -38 45 0
-202 36 0
-202 -20 0
-202 -61 0
-202 50 0
-202 -17 0
202 -36 20 61 -50 17 0
-203 138 0
-203 -99 0
-203 81 0
-203 -18 0
-203 -73 0
203 -138 99 -81 18 73 0
-204 20 0
-204 -175 0
-204 119 0
-204 54 0
-204 6 0
204 -20 175 -119 -54 -6 0
-205 104 0
-205 -124 0
-205 18 0
-205 116 0
-205 -93 0
205 -104 124 -18 -116 93 0
201 202 203 204 205 0
-206 -184 0
-206 -24 0
-206 -177 0
-206 56 0
-206 127 0
206 184 24 177 -56 -127 0
-207 -151 0
-207 4 0
-207 144 0
-207 158 0
-207 57 0
207 151 -4 -144 -158 -57 0
-208 -150 0
-208 -2 0
-208 124 0
-208 145 0
-208 72 0
208 150 2 -124 -145 -72 0
-209 88 0
-209 -29 0
-209 -139 0
-209 -171 0
-209 -128 0
209 -88 29 139 171 128 0
-210 173 0
-210 -96 0
-210 -123 0
-210 -52 0
-210 -62 0
210 -173 96 123 52 62 0
206 207 208 209 210 0
-211 114 0
-211 -189 0
-211 -170 0
-211 143 0
-211 -158 0
211 -114 189 170 -143 158 0
-212 58 0
-212 -85 0
-212 -109 0
-212 -82 0
-212 161 0
212 -58 85 109 82 -161 0
-213 -132 0
-213 6 0
-213 84 0
-213 -83 0
-213 187 0
213 132 -6 -84 83 -187 0
-214 -147 0
-214 165 0
-214 24 0
-214 -21 0
-214 -139 0
214 147 -165 -24 21 139 0
-215 -37 0
-215 26 0
-215 -84 0
-215 -141 0
-215 -80 0
215 37 -26 84 141 80 0
211 212 213 214 215 0
-216 80 0
-216 95 0
-216 -173 0
-216 -74 0
-216 84 0
216 -80 -95 173 74 -84 0
-217 -71 0
-217 -7 0
-217 9 0
-217 81 0
-217 -50 0
217 71 7 -9 -81 50 0
-218 11 0
-218 46 0
-218 90 0
-218 69 0
-218 -53 0
218 -11 -46 -90 -69 53 0
-219 99 0
-219 -168 0
-219 -160 0
-219 105 0
-219 46 0
219 -99 168 160 -105 -46 0
-220 106 0
-220 -167 0
-220 124 0
-220 151 0
-220 -45 0
220 -106 167 -124 -151 45 0
216 217 218 219 220 0
-221 63 0
-221 -149 0
-221 88 0
-221 -162 0
-221 -76 0
221 -63 149 -88 162 76 0
-222 -136 0
-222 -70 0
-222 27 0
-222 -15 0
-222 -190 0
222 136 70 -27 15 190 0
-223 -112 0
-223 -39 0
-223 57 0
-223 116 0
-223 152 0
223 112 39 -57 -116 -152 0
-224 138 0
-224 173 0
-224 -151 0
-224 158 0
-224 -30 0
224 -138 -173 151 -158 30 0
-225 -50 0
-225 -29 0
-225 124 0
-225 49 0
-225 40 0
225 50 29 -124 -49 -40 0
221 222 223 224 225 0
-226 59 0
-226 -51 0
-226 -126 0
-226 115 0
-226 -130 0
226 -59 51 126 -115 130 0
-227 96 0
-227 -103 0
-227 1 0
-227 100 0
-227 12 0
227 -96 103 -1 -100 -12 0
-228 -185 0
-228 -13 0
-228 -167 0
-228 -69 0
-228 -98 0
228 185 13 167 69 98 0
-229 155 0
-229 -173 0
-229 -152 0
-229 32 0
-229 21 0
229 -155 173 152 -32 -21 0
-230 -124 0
-230 125 0
-230 66 0
-230 -183 0
-230 -179 0
230 124 -125 -66 183 179 0
226 227 228 229 230 0
-231 123 0
-231 -129 0
-231 37 0
-231 -5 0
-231 102 0
231 -123 129 -37 5 -102 0
-232 -1 0
-232 -93 0
-232 -129 0
-232 73 0
-232 111 0
232 1 93 129 -73 -111 0
-233 21 0
-233 -115 0
-233 56 0
-233 -52 0
-233 91 0
233 -21 115 -56 52 -91 0
-234 102 0
-234 42 0
-234 -101 0
-234 133 0
-234 71 0
234 -102 -42 101 -133 -71 0
-235 -86 0
-235 -166 0
-235 51 0
-235 -54 0
-235 123 0
235 86 166 -51 54 -123 0
231 232 233 234 235 0
-236 -128 0
-236 -162 0
-236 188 0
-236 7 0
-236 -84 0
236 128 162 -188 -7 84 0
-237 135 0
-237 112 0
-237 -28 0
-237 -92 0
-237 -43 0
237 -135 -112 28 92 43 0
-238 40 0
-238 -76 0
-238 -78 0
-238 188 0
-238 -159 0
238 -40 76 78 -188 159 0
-239 -97 0
-239 22 0
-239 -185 0
-239 -149 0
-239 156 0
239 97 -22 185 149 -156 0
-240 20 0
-240 -93 0
-240 88 0
-240 -112 0
-240 -87 0
240 -20 93 -88 112 87 0
236 237 238 239 240 0
-241 -92 0
-241 45 0
-241 170 0
-241 -76 0
-241 116 0
241 92 -45 -170 76 -116 0
-242 139 0
-242 64 0
-242 -49 0
-242 -155 0
-242 -11 0
242 -139 -64 49 155 11 0
-243 -175 0
-243 106 0
-243 110 0
-243 -125 0
-243 -138 0
243 175 -106 -110 125 138 0
-244 -77 0
-244 -40 0
-244 -23 0
-244 -72 0
-244 -159 0
244 77 40 23 72 159 0
-245 95 0
-245 -54 0
-245 -31 0
-245 -116 0
-245 32 0
245 -95 54 31 116 -32 0
241 242 243 244 245 0
-246 -184 0
-246 -85 0
-246 130 0
-246 -190 0
-246 156 0
246 184 85 -130 190 -156 0
-247 -66 0
-247 140 0
-247 137 0
-247 -1 0
-247 -86 0
247 66 -140 -137 1 86 0
-248 -160 0
-248 -47 0
-248 -37 0
-248 -40 0
-248 -100 0
248 160 47 37 40 100 0
-249 64 0
-249 38 0
-249 -15 0
-249 114 0
-249 -32 0
249 -64 -38 15 -114 32 0
-250 110 0
-250 -55 0
-250 41 0
-250 -180 0
-250 -145 0
250 -110 55 -41 180 145 0
246 247 248 249 250 0
-251 -123 0
-251 -93 0
-251 -71 0
-251 -27 0
-251 185 0
251 123 93 71 27 -185 0
-252 43 0
-252 143 0
-252 -182 0
-252 72 0
-252 23 0
252 -43 -143 182 -72 -23 0
-253 -48 0
-253 -79 0
-253 -18 0
-253 94 0
-253 98 0
253 48 79 18 -94 -98 0
-254 -118 0
-254 107 0
-254 -49 0
-254 3 0
-254 153 0
254 118 -107 49 -3 -153 0
-255 25 0
-255 75 0
-255 64 0
-255 45 0
-255 46 0
255 -25 -75 -64 -45 -46 0
251 252 253 254 255 0
-256 -16 0
-256 -78 0
-256 -50 0
-256 138 0
-256 58 0
256 16 78 50 -138 -58 0
-257 -3 0
-257 15 0
-257 18 0
-257 145 0
-257 -138 0
257 3 -15 -18 -145 138 0
-258 102 0
-258 -178 0
-258 -36 0
-258 -115 0
-258 1 0
258 -102 178 36 115 -1 0
-259 56 0
-259 -156 0
-259 -186 0
-259 79 0
-259 -138 0
259 -56 156 186 -79 138 0
-260 -42 0
-260 70 0
-260 5 0
-260 -20 0
-260 178 0
260 42 -70 -5 20 -178 0
256 257 258 259 260 0
-261 75 0
-261 88 0
-261 -47 0
-261 -170 0
-261 119 0
261 -75 -88 47 170 -119 0
-262 137 0
-262 -168 0
-262 -163 0
-262 -37 0
-262 -52 0
262 -137 168 163 37 52 0
-263 -70 0
-263 -18 0
-263 153 0
-263 33 0
-263 -86 0
263 70 18 -153 -33 86 0
-264 170 0
-264 -173 0
-264 47 0
-264 -13 0
-264 -119 0
264 -170 173 -47 13 119 0
-265 136 0
-265 -172 0
-265 127 0
-265 74 0
-265 -121 0
265 -136 172 -127 -74 121 0
261 262 263 264 265 0
-266 -142 0
-266 -54 0
-266 -28 0
-266 65 0
-266 148 0
266 142 54 28 -65 -148 0
-267 55 0
-267 172 0
-267 183 0
-267 -41 0
-267 -33 0
267 -55 -172 -183 41 33 0
-268 165 0
-268 -154 0
-268 -158 0
-268 -114 0
-268 -133 0
268 -165 154 158 114 133 0
-269 -6 0
-269 64 0
-269 -106 0
-269 135 0
-269 -185 0
269 6 -64 106 -135 185 0
-270 -35 0
-270 -40 0
-270 8 0
-270 136 0
-270 -20 0
270 35 40 -8 -136 20 0
266 267 268 269 270 0
-271 76 0
-271 41 0
-271 -91 0
-271 66 0
-271 -141 0
271 -76 -41 91 -66 141 0
-272 146 0
-272 173 0
-272 132 0
-272 18 0
-272 99 0
272 -146 -173 -132 -18 -99 0
-273 -47 0
-273 96 0
-273 -126 0
-273 8 0
-273 165 0
273 47 -96 126 -8 -165 0
-274 142 0
-274 -122 0
-274 -105 0
-274 -161 0
-274 -114 0
274 -142 122 105 161 114 0
-275 -130 0
-275 12 0
-275 148 0
-275 -100 0
-275 23 0
275 130 -12 -148 100 -23 0
271 272 273 274 275 0
-276 164 0
-276 42 0
-276 19 0
-276 -136 0
-276 -139 0
276 -164 -42 -19 136 139 0
-277 -49 0
-277 116 0
-277 164 0
-277 -10 0
-277 96 0
277 49 -116 -164 10 -96 0
-278 139 0
-278 40 0
-278 -189 0
-278 52 0
-278 -7 0
278 -139 -40 189 -52 7 0
-279 97 0
-279 29 0
-279 71 0
-279 -116 0
-279 -144 0
279 -97 -29 -71 116 144 0
-280 -69 0
-280 126 0
-280 -17 0
-280 -26 0
-280 164 0
280 69 -126 17 26 -164 0
276 277 278 279 280 0
-281 89 0
-281 112 0
-281 -73 0
-281 163 0
-281 74 0
281 -89 -112 73 -163 -74 0
-282 -123 0
-282 -36 0
-282 -76 0
-282 3 0
-282 124 0
282 123 36 76 -3 -124 0
-283 -21 0
-283 162 0
-283 137 0
-283 -28 0
-283 172 0
283 21 -162 -137 28 -172 0
-284 33 0
-284 -54 0
-284 171 0
-284 -147 0
-284 -104 0
284 -33 54 -171 147 104 0
-285 -37 0
-285 -166 0
-285 104 0
-285 -31 0
-285 -21 0
285 37 166 -104 31 21 0
281 282 283 284 285 0
-286 7 0
-286 -13 0
-286 -63 0
-286 -183 0
-286 -145 0
286 -7 13 63 183 145 0
-287 164 0
-287 8 0
-287 28 0
-287 -184 0
-287 -10 0
287 -164 -8 -28 184 10 0
-288 88 0
-288 -93 0
-288 -68 0
-288 129 0
-288 -137 0
288 -88 93 68 -129 137 0
-289 -101 0
-289 -57 0
-289 164 0
-289 -176 0
-289 107 0
289 101 57 -164 176 -107 0
-290 23 0
-290 50 0
-290 171 0
-290 124 0
-290 77 0
290 -23 -50 -171 -124 -77 0
286 287 288 289 290 0
-291 -184 0
-291 134 0
-291 -27 0
-291 -129 0
-291 -64 0
291 184 -134 27 129 64 0
-292 -66 0
-292 156 0
-292 -109 0
-292 13 0
-292 -127 0
292 66 -156 109 -13 127 0
-293 -114 0
-293 -57 0
-293 -7 0
-293 188 0
-293 22 0
293 114 57 7 -188 -22 0
-294 -152 0
-294 -71 0
-294 163 0
-294 -140 0
-294 43 0
294 152 71 -163 140 -43 0
-295 -129 0
-295 -168 0
-295 161 0
-295 -176 0
-295 -158 0
295 129 168 -161 176 158 0
291 292 293 294 295 0
-296 63 0
-296 -24 0
-296 89 0
-296 -179 0
-296 87 0
296 -63 24 -89 179 -87 0
-297 -169 0
-297 -70 0
-297 -74 0
-297 127 0
-297 77 0
297 169 70 74 -127 -77 0
-298 156 0
-298 -98 0
-298 144 0
-298 187 0
-298 -3 0
298 -156 98 -144 -187 3 0
-299 -132 0
-299 -8 0
-299 130 0
-299 -42 0
-299 54 0
299 132 8 -130 42 -54 0
-300 -158 0
-300 161 0
-300 -42 0
-300 101 0
-300 140 0
300 158 -161 42 -101 -140 0
296 297 298 299 300 0
-301 154 0
-301 -133 0
-301 -78 0
-301 -53 0
-301 1 0
301 -154 133 78 53 -1 0
-302 135 0
-302 -100 0
-302 -89 0
-302 -172 0
-302 -69 0
302 -135 100 89 172 69 0
-303 134 0
-303 -18 0
-303 154 0
-303 54 0
-303 -32 0
303 -134 18 -154 -54 32 0
-304 140 0
-304 112 0
-304 188 0
-304 10 0
-304 -151 0
304 -140 -112 -188 -10 151 0
-305 11 0
-305 124 0
-305 -134 0
-305 48 0
-305 -58 0
305 -11 -124 134 -48 58 0
301 302 303 304 305 0
-306 -125 0
-306 -83 0
-306 122 0
-306 96 0
-306 -1 0
306 125 83 -122 -96 1 0
-307 -171 0
-307 -36 0
-307 66 0
-307 -3 0
-307 -132 0
307 171 36 -66 3 132 0
-308 96 0
-308 188 0
-308 18 0
-308 -130 0
-308 -155 0
308 -96 -188 -18 130 155 0
-309 177 0
-309 74 0
-309 159 0
-309 85 0
-309 157 0
309 -177 -74 -159 -85 -157 0
-310 -5 0
-310 -118 0
-310 155 0
-310 7 0
-310 -84 0
310 5 118 -155 -7 84 0
306 307 308 309 310 0
-311 32 0
-311 178 0
-311 76 0
-311 -45 0
-311 127 0
311 -32 -178 -76 45 -127 0
-312 -144 0
-312 44 0
-312 -54 0
-312 -162 0
-312 -159 0
312 144 -44 54 162 159 0
-313 -100 0
-313 184 0
-313 -32 0
-313 99 0
-313 -23 0
313 100 -184 32 -99 23 0
-314 165 0
-314 96 0
-314 -63 0
-314 -158 0
-314 105 0
314 -165 -96 63 158 -105 0
-315 1 0
-315 -173 0
-315 -27 0
-315 -85 0
-315 63 0
315 -1 173 27 85 -63 0
311 312 313 314 315 0
-316 18 0
-316 96 0
-316 -126 0
-316 -93 0
-316 -9 0
316 -18 -96 126 93 9 0
-317 -63 0
-317 36 0
-317 67 0
-317 76 0
-317 -89 0
317 63 -36 -67 -76 89 0
-318 -122 0
-318 128 0
-318 143 0
-318 33 0
-318 65 0
318 122 -128 -143 -33 -65 0
-319 -42 0
-319 -165 0
-319 177 0
-319 113 0
-319 171 0
319 42 165 -177 -113 -171 0
-320 180 0
-320 82 0
-320 -60 0
-320 -117 0
-320 124 0
320 -180 -82 60 117 -124 0
316 317 318 319 320 0
-321 142 0
-321 -156 0
-321 -26 0
-321 -42 0
-321 139 0
321 -142 156 26 42 -139 0
-322 3 0
-322 45 0
-322 46 0
-322 43 0
-322 93 0
322 -3 -45 -46 -43 -93 0
-323 189 0
-323 128 0
-323 -118 0
-323 151 0
-323 172 0
323 -189 -128 118 -151 -172 0
-324 -125 0
-324 15 0
-324 -33 0
-324 -54 0
-324 -45 0
324 125 -15 33 54 45 0
-325 10 0
-325 37 0
-325 79 0
-325 -188 0
-325 189 0
325 -10 -37 -79 188 -189 0
321 322 323 324 325 0
-326 38 0
-326 -85 0
-326 182 0
-326 -70 0
-326 142 0
326 -38 85 -182 70 -142 0
-327 147 0
-327 -141 0
-327 -98 0
-327 -108 0
-327 122 0
327 -147 141 98 108 -122 0
-328 -189 0
-328 -78 0
-328 177 0
-328 94 0
-328 -4 0
328 189 78 -177 -94 4 0
-329 51 0
-329 103 0
-329 145 0
-329 -88 0
-329 92 0
329 -51 -103 -145 88 -92 0
-330 -34 0
-330 22 0
-330 -48 0
-330 -69 0
-330 79 0
330 34 -22 48 69 -79 0
326 327 328 329 330 0
-331 60 0
-331 2 0
-331 -166 0
-331 177 0
-331 87 0
331 -60 -2 166 -177 -87 0
-332 18 0
-332 103 0
-332 -81 0
-332 -68 0
-332 51 0
332 -18 -103 81 68 -51 0
-333 -64 0
-333 166 0
-333 41 0
-333 -54 0
-333 85 0
333 64 -166 -41 54 -85 0
-334 179 0
-334 -82 0
-334 -96 0
-334 177 0
-334 -29 0
334 -179 82 96 -177 29 0
-335 -44 0
-335 12 0
-335 -178 0
-335 164 0
-335 2 0
335 44 -12 178 -164 -2 0
331 332 333 334 335 0
-336 -79 0
-336 112 0
-336 -10 0
-336 150 0
-336 -93 0
336 79 -112 10 -150 93 0
-337 48 0
-337 -108 0
-337 101 0
-337 -162 0
-337 29 0
337 -48 108 -101 162 -29 0
-338 -47 0
-338 -138 0
-338 -184 0
-338 -104 0
-338 43 0
338 47 138 184 104 -43 0
-339 -153 0
-339 -113 0
-339 97 0
-339 -36 0
-339 71 0
339 153 113 -97 36 -71 0
-340 -105 0
-340 -109 0
-340 -79 0
-340 -181 0
-340 180 0
340 105 109 79 181 -180 0
336 337 338 339 340 0
-341 35 0
-341 74 0
-341 100 0
-341 -5 0
-341 175 0
341 -35 -74 -100 5 -175 0
-342 120 0
-342 -167 0
-342 166 0
-342 1 0
-342 11 0
342 -120 167 -166 -1 -11 0
-343 -103 0
-343 -176 0
-343 128 0
-343 50 0
-343 -41 0
343 103 176 -128 -50 41 0
-344 -112 0
-344 -182 0
-344 175 0
-344 114 0
-344 132 0
344 112 182 -175 -114 -132 0
-345 61 0
-345 -165 0
-345 -181 0
-345 -22 0
-345 70 0
345 -61 165 181 22 -70 0
341 342 343 344 345 0
-346 -126 0
-346 -190 0
-346 61 0
-346 79 0
-346 80 0
346 126 190 -61 -79 -80 0
-347 -126 0
-347 -59 0
-347 174 0
-347 -71 0
-347 -114 0
347 126 59 -174 71 114 0
-348 72 0
-348 56 0
-348 185 0
-348 -165 0
-348 -143 0
348 -72 -56 -185 165 143 0
-349 91 0
-349 160 0
-349 -23 0
-349 -159 0
-349 88 0
349 -91 -160 23 159 -88 0
-350 106 0
-350 -37 0
-350 81 0
-350 156 0
-350 133 0
350 -106 37 -81 -156 -133 0
346 347 348 349 350 0
-351 -66 0
-351 -1 0
-351 -116 0
-351 -40 0
-351 -35 0
351 66 1 116 40 35 0
-352 -77 0
-352 6 0
-352 -189 0
-352 43 0
-352 -138 0
352 77 -6 189 -43 138 0
-353 166 0
-353 -109 0
-353 -19 0
-353 96 0
-353 29 0
353 -166 109 19 -96 -29 0
-354 -44 0
-354 31 0
-354 -39 0
-354 158 0
-354 -28 0
354 44 -31 39 -158 28 0
-355 -118 0
-355 15 0
-355 17 0
-355 -163 0
-355 -115 0
355 118 -15 -17 163 115 0
351 352 353 354 355 0
-356 -133 0
-356 35 0
-356 -8 0
-356 -34 0
-356 -180 0
356 133 -35 8 34 180 0
-357 -15 0
-357 -6 0
-357 -19 0
-357 -93 0
-357 170 0
357 15 6 19 93 -170 0
-358 18 0
-358 -137 0
-358 144 0
-358 -174 0
-358 -118 0
358 -18 137 -144 174 118 0
-359 128 0
-359 87 0
-359 64 0
-359 -134 0
-359 163 0
359 -128 -87 -64 134 -163 0
-360 -16 0
-360 26 0
-360 173 0
-360 -81 0
-360 154 0
360 16 -26 -173 81 -154 0
356 357 358 359 360 0
-361 -144 0
-361 -12 0
-361 156 0
-361 -167 0
-361 -87 0
361 144 12 -156 167 87 0
-362 109 0
-362 167 0
-362 -160 0
-362 107 0
-362 46 0
362 -109 -167 160 -107 -46 0
-363 -91 0
-363 87 0
-363 -176 0
-363 -52 0
-363 170 0
363 91 -87 176 52 -170 0
-364 65 0
-364 -112 0
-364 -24 0
-364 57 0
-364 62 0
364 -65 112 24 -57 -62 0
-365 16 0
-365 67 0
-365 -140 0
-365 -189 0
-365 -34 0
365 -16 -67 140 189 34 0
361 362 363 364 365 0
-366 105 0
-366 32 0
-366 110 0
-366 -55 0
-366 103 0
366 -105 -32 -110 55 -103 0
-367 178 0
-367 -96 0
-367 156 0
-367 -89 0
-367 -142 0
367 -178 96 -156 89 142 0
-368 -105 0
-368 -28 0
-368 16 0
-368 -44 0
-368 -129 0
368 105 28 -16 44 129 0
-369 -57 0
-369 91 0
-369 -113 0
-369 -50 0
-369 163 0
369 57 -91 113 50 -163 0
-370 -12 0
-370 -34 0
-370 -104 0
-370 68 0
-370 -6 0
370 12 34 104 -68 6 0
366 367 368 369 370 0
-371 -170 0
-371 -51 0
-371 -17 0
-371 -117 0
-371 148 0
371 170 51 17 117 -148 0
-372 -76 0
-372 -182 0
-372 116 0
-372 -149 0
-372 34 0
372 76 182 -116 149 -34 0
-373 -30 0
-373 -47 0
-373 151 0
-373 -56 0
-373 103 0
373 30 47 -151 56 -103 0
-374 43 0
-374 137 0
-374 186 0
-374 -167 0
-374 -14 0
374 -43 -137 -186 167 14 0
-375 -97 0
-375 -74 0
-375 -144 0
-375 -55 0
-375 122 0
375 97 74 144 55 -122 0
371 372 373 374 375 0
-376 26 0
-376 -80 0
-376 102 0
-376 131 0
-376 -22 0
376 -26 80 -102 -131 22 0
-377 3 0
-377 73 0
-377 -113 0
-377 76 0
-377 27 0
377 -3 -73 113 -76 -27 0
-378 172 0
-378 -89 0
-378 -160 0
-378 -20 0
-378 -152 0
378 -172 89 160 20 152 0
-379 51 0
-379 150 0
-379 134 0
-379 -18 0
-379 -99 0
379 -51 -150 -134 18 99 0
-380 -95 0
-380 -35 0
-380 21 0
-380 133 0
-380 -163 0
380 95 35 -21 -133 163 0
376 377 378 379 380 0
-381 100 0
-381 41 0
-381 143 0
-381 134 0
-381 51 0
381 -100 -41 -143 -134 -51 0
-382 20 0
-382 129 0
-382 120 0
-382 66 0
-382 82 0
382 -20 -129 -120 -66 -82 0
-383 159 0
-383 39 0
-383 -48 0
-383 -183 0
-383 59 0
383 -159 -39 48 183 -59 0
-384 -2 0
-384 -29 0
-384 20 0
-384 -131 0
-384 -152 0
384 2 29 -20 131 152 0
-385 -125 0
-385 -124 0
-385 25 0
-385 107 0
-385 -79 0
385 125 124 -25 -107 79 0
381 382 383 384 385 0
-386 100 0
-386 -117 0
-386 -162 0
-386 -120 0
-386 170 0
386 -100 117 162 120 -170 0
-387 180 0
-387 125 0
-387 33 0
-387 -20 0
-387 -39 0
387 -180 -125 -33 20 39 0
-388 70 0
-388 -12 0
-388 -46 0
-388 6 0
-388 56 0
388 -70 12 46 -6 -56 0
-389 38 0
-389 -176 0
-389 -107 0
-389 -71 0
-389 100 0
389 -38 176 107 71 -100 0
-390 -79 0
-390 -10 0
-390 159 0
-390 -8 0
-390 160 0
390 79 10 -159 8 -160 0
386 387 388 389 390 0
-391 -69 0
-391 118 0
-391 50 0
-391 -125 0
-391 34 0
391 69 -118 -50 125 -34 0
-392 151 0
-392 -19 0
-392 -56 0
-392 136 0
-392 28 0
392 -151 19 56 -136 -28 0
-393 -127 0
-393 -4 0
-393 183 0
-393 72 0
-393 152 0
393 127 4 -183 -72 -152 0
-394 -138 0
-394 13 0
-394 -86 0
-394 -52 0
-394 19 0
394 138 -13 86 52 -19 0
-395 158 0
-395 -64 0
-395 19 0
-395 138 0
-395 109 0
395 -158 64 -19 -138 -109 0
391 392 393 394 395 0
-396 83 0
-396 94 0
-396 16 0
-396 120 0
-396 41 0
396 -83 -94 -16 -120 -41 0
-397 -81 0
-397 25 0
-397 -160 0
-397 69 0
-397 -93 0
397 81 -25 160 -69 93 0
-398 152 0
-398 -46 0
-398 12 0
-398 -110 0
-398 -92 0
398 -152 46 -12 110 92 0
-399 137 0
-399 -76 0
-399 175 0
-399 -90 0
-399 -9 0
399 -137 76 -175 90 9 0
-400 -65 0
-400 179 0
-400 -123 0
-400 79 0
-400 -124 0
400 65 -179 123 -79 124 0
396 397 398 399 400 0
-401 96 0
-401 61 0
-401 154 0
-401 -8 0
-401 -188 0
401 -96 -61 -154 8 188 0
-402 -62 0
-402 96 0
-402 -180 0
-402 143 0
-402 129 0
402 62 -96 180 -143 -129 0
-403 18 0
-403 -128 0
-403 132 0
-403 19 0
-403 102 0
403 -18 128 -132 -19 -102 0
-404 -150 0
-404 -170 0
-404 151 0
-404 -136 0
-404 -85 0
404 150 170 -151 136 85 0
-405 -190 0
-405 23 0
-405 131 0
-405 -29 0
-405 -2 0
405 190 -23 -131 29 2 0
401 402 403 404 405 0
-406 -1 0
-406 -143 0
-406 -104 0
-406 136 0
-406 171 0
406 1 143 104 -136 -171 0
-407 -190 0
-407 -31 0
-407 -34 0
-407 11 0
-407 20 0
407 190 31 34 -11 -20 0
-408 -78 0
-408 180 0
-408 -8 0
-408 -13 0
-408 131 0
408 78 -180 8 13 -131 0
-409 182 0
-409 -83 0
-409 73 0
-409 -17 0
-409 156 0
409 -182 83 -73 17 -156 0
-410 -108 0
-410 -45 0
-410 -55 0
-410 126 0
-410 -1 0
410 108 45 55 -126 1 0
406 407 408 409 410 0
-411 33 0
-411 -177 0
-411 101 0
-411 -4 0
-411 -108 0
411 -33 177 -101 4 108 0
-412 -144 0
-412 -66 0
-412 166 0
-412 100 0
-412 38 0
412 144 66 -166 -100 -38 0
-413 178 0
-413 78 0
-413 158 0
-413 -44 0
-413 -83 0
413 -178 -78 -158 44 83 0
-414 100 0
-414 -185 0
-414 92 0
-414 94 0
-414 -135 0
414 -100 185 -92 -94 135 0
-415 -140 0
-415 65 0
-415 -111 0
-415 188 0
-415 46 0
415 140 -65 111 -188 -46 0
411 412 413 414 415 0
-416 5 0
-416 94 0
-416 -155 0
-416 180 0
-416 21 0
416 -5 -94 155 -180 -21 0
-417 -142 0
-417 151 0
-417 38 0
-417 -107 0
-417 -63 0
417 142 -151 -38 107 63 0
-418 -118 0
-418 -113 0
-418 -7 0
-418 19 0
-418 -104 0
418 118 113 7 -19 104 0
-419 -59 0
-419 120 0
-419 87 0
-419 105 0
-419 -107 0
419 59 -120 -87 -105 107 0
-420 103 0
-420 -10 0
-420 -124 0
-420 30 0
-420 -128 0
420 -103 10 124 -30 128 0
416 417 418 419 420 0
-421 7 0
-421 84 0
-421 115 0
-421 97 0
-421 153 0
421 -7 -84 -115 -97 -153 0
-422 -17 0
-422 163 0
-422 130 0
-422 -102 0
-422 -145 0
422 17 -163 -130 102 145 0
-423 8 0
-423 146 0
-423 -98 0
-423 -164 0
-423 -31 0
423 -8 -146 98 164 31 0
-424 160 0
-424 -135 0
-424 -117 0
-424 105 0
-424 -35 0
424 -160 135 117 -105 35 0
-425 158 0
-425 -99 0
-425 -84 0
-425 47 0
-425 -181 0
425 -158 99 84 -47 181 0
421 422 423 424 425 0
-426 54 0
-426 -28 0
-426 -130 0
-426 65 0
-426 114 0
426 -54 28 130 -65 -114 0
-427 104 0
-427 190 0
-427 96 0
-427 178 0
-427 59 0
427 -104 -190 -96 -178 -59 0
-428 -105 0
-428 -89 0
-428 -179 0
-428 97 0
-428 -140 0
428 105 89 179 -97 140 0
-429 -98 0
-429 -147 0
-429 -73 0
-429 -181 0
-429 155 0
429 98 147 73 181 -155 0
-430 15 0
-430 -35 0
-430 -180 0
-430 115 0
-430 -110 0
430 -15 35 180 -115 110 0
426 427 428 429 430 0
